c turning on binary mode checking
c parsing input formula with 259840 variables and 1039924 clauses
c finished parsing, read 2841069 bytes from proof file
c detected empty clause; start verification via backward checking
c 1832 of 1039924 clauses in core                            
c 476 of 114829 lemmas in core using 11365 resolution steps
c 0 RAT lemmas in core; 24 redundant literals in core lemmas
s VERIFIED
c verification time: 1.152 seconds
